
-3.8
-3.55
-3.45
-3.35
-3.2
-3.1
-2.95
-2.65
-2.35
-1.8
-0.95
-0.55
-0.4
-0.2
-0.1
0.0
0.0
0.0
0.0
0.0
0.0
0.0
0.0
0.0
0.0
0.0
0.0
0.0
0.0
0.0
0.0
0.0
0.0
0.0
-3.85
-3.8
-3.8
-3.5
-3.45
-3.25
-2.75
-2.65
-2.3
-1.55
-1.05
-0.6
-0.45
-0.3
-0.15
-0.15
-0.1
-0.1
-0.1
0.0
0.0
0.0
0.0
0.0
0.0
0.0
0.0
0.0
0.0
0.0
0.0
0.0